100
32
6
5
5
1
17
9
26
10
11
9
1
3
3
8
3
21
3
7
2
17
6
17
5
3
9
17
18
1
19
6
4
5
14
23
20
4
20
1
22
1
5
2
5
2
1
6
6
6
3
22
3
5
15
15
13
13
2
6
1
23
22
16
8
3
12
20
13
25
1
12
7
4
25
1
2
23
5
6
17
15
25
2
7
9
1
4
23
9
8
6
1
10
2
15
20
1
21
10
12
1